
n_res = 6;
rcap = [31, 29, 852, 925, 939, 882];
rtype = [1, 1, 2, 2, 2, 2];
n_tasks = 100;
modes =  [{1, 2, 3, 4, 5, 6}, {7, 8, 9, 10, 11, 12}, {13, 14, 15, 16, 17, 18}, {19, 20, 21, 22, 23, 24}, {25, 26, 27, 28, 29, 30}, {31, 32, 33, 34, 35, 36}, {37, 38, 39, 40, 41, 42}, {43, 44, 45, 46, 47, 48}, {49, 50, 51, 52, 53, 54}, {55, 56, 57, 58, 59, 60}, {61, 62, 63, 64, 65, 66}, {67, 68, 69, 70, 71, 72}, {73, 74, 75, 76, 77, 78}, {79, 80, 81, 82, 83, 84}, {85, 86, 87, 88, 89, 90}, {91, 92, 93, 94, 95, 96}, {97, 98, 99, 100, 101, 102}, {103, 104, 105, 106, 107, 108}, {109, 110, 111, 112, 113, 114}, {115, 116, 117, 118, 119, 120}, {121, 122, 123, 124, 125, 126}, {127, 128, 129, 130, 131, 132}, {133, 134, 135, 136, 137, 138}, {139, 140, 141, 142, 143, 144}, {145, 146, 147, 148, 149, 150}, {151, 152, 153, 154, 155, 156}, {157, 158, 159, 160, 161, 162}, {163, 164, 165, 166, 167, 168}, {169, 170, 171, 172, 173, 174}, {175, 176, 177, 178, 179, 180}, {181, 182, 183, 184, 185, 186}, {187, 188, 189, 190, 191, 192}, {193, 194, 195, 196, 197, 198}, {199, 200, 201, 202, 203, 204}, {205, 206, 207, 208, 209, 210}, {211, 212, 213, 214, 215, 216}, {217, 218, 219, 220, 221, 222}, {223, 224, 225, 226, 227, 228}, {229, 230, 231, 232, 233, 234}, {235, 236, 237, 238, 239, 240}, {241, 242, 243, 244, 245, 246}, {247, 248, 249, 250, 251, 252}, {253, 254, 255, 256, 257, 258}, {259, 260, 261, 262, 263, 264}, {265, 266, 267, 268, 269, 270}, {271, 272, 273, 274, 275, 276}, {277, 278, 279, 280, 281, 282}, {283, 284, 285, 286, 287, 288}, {289, 290, 291, 292, 293, 294}, {295, 296, 297, 298, 299, 300}, {301, 302, 303, 304, 305, 306}, {307, 308, 309, 310, 311, 312}, {313, 314, 315, 316, 317, 318}, {319, 320, 321, 322, 323, 324}, {325, 326, 327, 328, 329, 330}, {331, 332, 333, 334, 335, 336}, {337, 338, 339, 340, 341, 342}, {343, 344, 345, 346, 347, 348}, {349, 350, 351, 352, 353, 354}, {355, 356, 357, 358, 359, 360}, {361, 362, 363, 364, 365, 366}, {367, 368, 369, 370, 371, 372}, {373, 374, 375, 376, 377, 378}, {379, 380, 381, 382, 383, 384}, {385, 386, 387, 388, 389, 390}, {391, 392, 393, 394, 395, 396}, {397, 398, 399, 400, 401, 402}, {403, 404, 405, 406, 407, 408}, {409, 410, 411, 412, 413, 414}, {415, 416, 417, 418, 419, 420}, {421, 422, 423, 424, 425, 426}, {427, 428, 429, 430, 431, 432}, {433, 434, 435, 436, 437, 438}, {439, 440, 441, 442, 443, 444}, {445, 446, 447, 448, 449, 450}, {451, 452, 453, 454, 455, 456}, {457, 458, 459, 460, 461, 462}, {463, 464, 465, 466, 467, 468}, {469, 470, 471, 472, 473, 474}, {475, 476, 477, 478, 479, 480}, {481, 482, 483, 484, 485, 486}, {487, 488, 489, 490, 491, 492}, {493, 494, 495, 496, 497, 498}, {499, 500, 501, 502, 503, 504}, {505, 506, 507, 508, 509, 510}, {511, 512, 513, 514, 515, 516}, {517, 518, 519, 520, 521, 522}, {523, 524, 525, 526, 527, 528}, {529, 530, 531, 532, 533, 534}, {535, 536, 537, 538, 539, 540}, {541, 542, 543, 544, 545, 546}, {547, 548, 549, 550, 551, 552}, {553, 554, 555, 556, 557, 558}, {559, 560, 561, 562, 563, 564}, {565, 566, 567, 568, 569, 570}, {571, 572, 573, 574, 575, 576}, {577, 578, 579, 580, 581, 582}, {583, 584, 585, 586, 587, 588}, {589, 590, 591, 592, 593, 594}, {595, 596, 597, 598, 599, 600}];
succ =  [{44, 42, 36, 35, 31, 30, 28, 25, 23, 15, 14}, {42, 35, 33, 28, 23, 20, 18, 17, 14, 12}, {50, 45, 44, 41, 40, 38, 35, 34, 31, 30, 28, 26, 23}, {59, 50, 45, 44, 43, 36, 35, 30, 26, 15}, {46, 45, 44, 43, 35, 32, 23, 20, 12}, {53, 44, 42, 38, 36, 35, 30, 26, 17}, {58, 50, 45, 44, 43, 38, 37, 36, 35, 30, 29, 27, 23}, {53, 52, 50, 48, 45, 37, 35, 29, 28, 21}, {59, 50, 43, 30, 26, 15}, {64, 59, 58, 52, 48, 46, 45, 41, 40, 39, 36, 35, 32}, {73, 59, 51, 49, 45, 43, 41, 40, 36, 34, 26}, {73, 59, 55, 53, 52, 51, 50, 49, 48, 47, 38, 37, 29}, {70, 61, 53, 52, 49, 48, 47, 45, 41, 40, 39, 35, 28}, {73, 61, 59, 58, 54, 52, 51, 50, 47, 46, 43, 37, 29}, {73, 52, 51, 47, 46, 38, 34, 29}, {64, 58, 48, 35, 30, 29}, {73, 54, 52, 51, 50, 47, 45, 34, 29}, {64, 59, 58, 51, 50, 49, 48, 46, 43, 29}, {64, 59, 52, 51, 46, 43, 38, 29}, {73, 70, 64, 58, 55, 54, 52, 51, 49, 41, 40, 39}, {83, 73, 70, 61, 54, 51, 49, 47, 44, 41, 40, 39}, {83, 73, 64, 60, 58, 50, 47, 41, 40, 35}, {83, 70, 64, 59, 57, 55, 54, 52, 51, 49, 48, 47, 39}, {64, 49, 42, 40, 39, 35}, {77, 73, 67, 64, 59, 54, 49, 47, 46, 45, 41, 40}, {70, 57, 54, 52, 47, 46, 39, 37}, {78, 77, 76, 70, 69, 68, 63, 62, 61, 60, 56, 54, 52, 49, 46}, {78, 77, 75, 73, 69, 63, 62, 59, 58, 56, 55, 54, 46}, {83, 70, 67, 41, 40, 39}, {78, 76, 73, 70, 69, 68, 63, 62, 61, 60, 56, 49, 46}, {99, 83, 82, 78, 76, 70, 67, 64, 57, 56, 54, 53, 47}, {83, 82, 73, 69, 67, 62, 56, 55, 54, 50, 49, 47}, {83, 77, 67, 62, 60, 54, 41, 40}, {97, 83, 78, 75, 71, 70, 69, 67, 65, 64, 58, 48}, {100, 82, 76, 75, 72, 62, 57, 55, 54, 51}, {100, 95, 77, 75, 72, 70, 68, 63, 62, 61, 54}, {100, 99, 97, 96, 95, 83, 81, 78, 76, 75, 74, 68, 67, 65, 64, 63}, {99, 96, 95, 76, 75, 68, 63, 61, 57, 54}, {97, 95, 82, 81, 77, 76, 75, 66, 62, 60, 56}, {99, 97, 95, 94, 93, 82, 78, 76, 71, 69, 56}, {99, 96, 95, 89, 74, 71, 68, 66, 63, 57}, {98, 97, 96, 83, 81, 71, 66, 63, 56}, {99, 96, 95, 71, 65, 63, 56}, {100, 98, 97, 96, 95, 93, 90, 89, 82, 81, 80, 75, 71, 68, 66}, {95, 93, 91, 90, 89, 85, 81, 80, 76, 71, 68, 66}, {99, 97, 96, 95, 89, 85, 83, 82, 74, 65}, {95, 93, 91, 89, 81, 80, 71, 68, 65}, {100, 99, 98, 92, 89, 88, 74, 68, 63}, {99, 97, 96, 94, 91, 89, 81, 75, 72, 66}, {95, 93, 89, 86, 79, 78, 77, 74, 65}, {97, 96, 95, 94, 90, 89, 88, 87, 81, 80, 79, 67}, {98, 97, 92, 90, 89, 88, 87, 82, 81, 80, 79, 67}, {97, 96, 95, 94, 89, 87, 77, 75, 72, 71}, {98, 97, 89, 86, 85, 81, 74, 65}, {98, 93, 91, 89, 68, 65}, {100, 90, 89, 88, 87, 86, 80, 74, 72}, {98, 92, 91, 88, 87, 86, 80, 69}, {98, 96, 95, 93, 88, 86, 85, 84, 76}, {100, 96, 95, 91, 90, 89, 87, 86, 85, 84}, {96, 93, 90, 89, 86, 85, 71}, {98, 92, 90, 89, 87, 82, 79}, {99, 96, 92, 87, 85, 71}, {94, 93, 91, 85, 82, 80}, {90, 89, 87, 86, 72}, {90, 66}, {92, 88, 87, 84}, {91, 86, 85, 84}, {94, 86, 79}, {90, 85, 81}, {91, 86, 79}, {88, 79}, {85, 79}, {85, 79}, {91, 84}, {86, 85}, {92, 87}, {85, 84}, {85, 84}, {84}, {84}, {84}, {86}, {84}, {}, {}, {}, {}, {}, {}, {}, {}, {}, {}, {}, {}, {}, {}, {}, {}, {}];
n_opt = 600;
dur = [9, 10, 13, 14, 16, 20, 3, 4, 11, 14, 16, 20, 1, 3, 4, 6, 14, 17, 2, 6, 7, 10, 12, 17, 2, 3, 13, 14, 18, 19, 4, 7, 9, 11, 14, 18, 3, 4, 10, 14, 15, 19, 1, 3, 5, 10, 17, 18, 2, 5, 6, 7, 8, 19, 1, 5, 7, 8, 15, 18, 3, 4, 5, 6, 10, 18, 3, 4, 5, 8, 9, 10, 1, 2, 3, 4, 12, 18, 5, 13, 14, 15, 17, 20, 1, 5, 6, 13, 14, 15, 5, 8, 10, 16, 17, 20, 4, 7, 10, 13, 18, 20, 1, 4, 5, 12, 15, 16, 1, 8, 9, 16, 18, 19, 5, 11, 12, 13, 17, 20, 3, 5, 6, 16, 18, 20, 6, 8, 15, 18, 19, 20, 1, 8, 10, 11, 14, 18, 4, 11, 12, 14, 15, 20, 3, 4, 5, 16, 17, 20, 4, 5, 12, 13, 15, 19, 3, 4, 9, 11, 15, 20, 4, 5, 6, 7, 14, 18, 1, 5, 8, 11, 19, 20, 2, 6, 8, 11, 14, 15, 3, 8, 9, 10, 17, 18, 5, 6, 9, 14, 19, 20, 4, 6, 12, 13, 14, 15, 1, 4, 5, 9, 14, 16, 3, 6, 10, 11, 14, 18, 5, 6, 7, 8, 9, 13, 4, 16, 17, 18, 19, 20, 9, 10, 16, 17, 19, 20, 1, 6, 7, 18, 19, 20, 9, 12, 14, 17, 18, 20, 2, 5, 7, 14, 15, 19, 8, 13, 14, 15, 18, 20, 1, 13, 14, 15, 17, 20, 1, 7, 9, 10, 13, 17, 1, 2, 9, 11, 15, 16, 9, 10, 13, 14, 17, 18, 3, 4, 6, 15, 16, 17, 8, 9, 10, 12, 17, 20, 6, 11, 12, 13, 16, 17, 1, 2, 3, 8, 10, 11, 1, 2, 5, 8, 13, 15, 2, 3, 4, 14, 16, 18, 1, 5, 10, 11, 15, 20, 2, 3, 8, 9, 15, 16, 2, 4, 11, 12, 13, 14, 4, 9, 10, 15, 16, 18, 3, 4, 5, 9, 18, 19, 2, 5, 6, 7, 8, 14, 1, 2, 8, 11, 16, 17, 2, 4, 5, 13, 15, 17, 3, 7, 8, 9, 11, 14, 2, 9, 10, 13, 18, 20, 1, 2, 5, 6, 13, 20, 2, 7, 9, 10, 15, 18, 1, 2, 4, 8, 15, 16, 5, 13, 16, 17, 19, 20, 1, 2, 3, 4, 16, 20, 4, 6, 8, 9, 11, 17, 1, 8, 12, 16, 17, 18, 7, 8, 17, 18, 19, 20, 1, 3, 7, 8, 19, 20, 1, 2, 8, 12, 15, 20, 10, 13, 15, 16, 17, 19, 2, 5, 14, 15, 18, 19, 5, 10, 11, 14, 15, 16, 5, 7, 8, 14, 19, 20, 3, 4, 9, 17, 19, 20, 2, 3, 4, 13, 15, 16, 1, 8, 9, 10, 12, 18, 2, 7, 11, 12, 13, 14, 1, 2, 11, 16, 17, 18, 1, 2, 15, 18, 19, 20, 1, 3, 12, 13, 14, 15, 4, 5, 14, 15, 19, 20, 11, 12, 13, 14, 15, 17, 4, 13, 14, 15, 16, 18, 5, 9, 11, 13, 14, 20, 3, 7, 10, 11, 12, 13, 6, 10, 14, 15, 16, 19, 1, 6, 8, 9, 10, 11, 1, 2, 3, 7, 13, 15, 5, 6, 11, 12, 17, 18, 3, 4, 8, 9, 17, 19, 1, 3, 7, 11, 17, 20, 6, 12, 13, 16, 18, 20, 3, 9, 10, 11, 14, 15, 3, 7, 9, 15, 16, 20, 5, 6, 9, 10, 15, 17, 10, 13, 16, 18, 19, 20, 2, 5, 6, 9, 10, 19];
rreq = [|3, 2, 2, 1, 1, 1, 5, 5, 5, 5, 5, 5, 1, 1, 1, 1, 1, 1, 1, 1, 1, 1, 1, 1, 4, 4, 4, 4, 3, 3, 2, 2, 2, 2, 2, 2, 3, 3, 3, 3, 3, 3, 5, 4, 4, 4, 3, 3, 5, 4, 4, 4, 4, 4, 4, 4, 3, 3, 3, 2, 3, 3, 3, 3, 3, 3, 4, 4, 4, 4, 4, 4, 4, 4, 4, 4, 4, 4, 4, 4, 3, 3, 2, 2, 3, 3, 3, 3, 3, 3, 4, 3, 3, 2, 2, 2, 2, 1, 1, 1, 1, 1, 5, 5, 5, 5, 5, 5, 2, 1, 1, 1, 1, 1, 3, 3, 3, 3, 2, 2, 2, 2, 2, 2, 2, 2, 3, 2, 2, 2, 1, 1, 5, 4, 4, 4, 3, 3, 3, 3, 2, 2, 2, 1, 3, 3, 3, 3, 3, 3, 4, 4, 4, 4, 4, 4, 1, 1, 1, 1, 1, 1, 4, 3, 3, 3, 2, 1, 3, 2, 2, 1, 1, 1, 4, 4, 4, 3, 3, 2, 1, 1, 1, 1, 1, 1, 3, 3, 3, 3, 3, 3, 2, 2, 2, 2, 1, 1, 2, 2, 2, 2, 2, 2, 2, 2, 2, 2, 1, 1, 4, 3, 3, 2, 1, 1, 3, 2, 2, 2, 2, 2, 3, 2, 2, 2, 2, 2, 4, 4, 4, 4, 4, 4, 4, 4, 3, 3, 1, 1, 5, 4, 4, 3, 3, 3, 4, 3, 3, 3, 3, 3, 4, 4, 3, 2, 2, 1, 3, 3, 3, 3, 3, 3, 5, 4, 4, 4, 4, 4, 4, 4, 4, 4, 4, 4, 2, 2, 2, 2, 2, 2, 5, 4, 4, 4, 3, 3, 3, 3, 3, 2, 2, 1, 5, 5, 5, 5, 5, 5, 2, 1, 1, 1, 1, 1, 2, 1, 1, 1, 1, 1, 5, 4, 4, 3, 3, 2, 4, 4, 4, 4, 4, 4, 3, 3, 3, 3, 2, 2, 4, 3, 3, 3, 3, 3, 1, 1, 1, 1, 1, 1, 3, 3, 3, 3, 3, 3, 4, 3, 2, 2, 2, 1, 3, 3, 3, 3, 3, 3, 2, 1, 1, 1, 1, 1, 4, 3, 2, 2, 1, 1, 5, 4, 3, 2, 2, 1, 2, 1, 1, 1, 1, 1, 5, 4, 3, 3, 3, 2, 5, 5, 5, 5, 5, 5, 4, 3, 3, 2, 2, 2, 3, 3, 3, 2, 2, 2, 4, 3, 2, 2, 1, 1, 4, 3, 3, 3, 3, 3, 4, 3, 3, 2, 1, 1, 4, 4, 4, 4, 4, 4, 3, 3, 3, 3, 3, 3, 2, 2, 2, 2, 2, 2, 3, 3, 3, 2, 2, 2, 1, 1, 1, 1, 1, 1, 3, 3, 3, 3, 3, 3, 2, 1, 1, 1, 1, 1, 2, 2, 2, 2, 2, 2, 3, 3, 2, 2, 2, 1, 4, 4, 4, 4, 4, 4, 2, 2, 2, 2, 2, 2, 4, 4, 4, 4, 4, 4, 1, 1, 1, 1, 1, 1, 5, 4, 4, 4, 3, 3, 3, 3, 3, 2, 2, 2, 2, 1, 1, 1, 1, 1, 3, 2, 2, 2, 2, 2, 3, 3, 3, 3, 3, 3, 4, 4, 3, 3, 1, 1, 2, 1, 1, 1, 1, 1, 4, 4, 3, 3, 3, 2, 4, 4, 4, 4, 4, 4, 1, 1, 1, 1, 1, 1, 3, 2, 2, 2, 2, 2, 3, 3, 3, 3, 2, 2, 4, 4, 3, 3, 1, 1, 3, 3, 3, 3, 3, 3, 5, 5, 5, 5, 5, 5, 4, 3, 2, 2, 1, 1
 |4, 3, 3, 3, 3, 3, 3, 3, 2, 2, 1, 1, 1, 1, 1, 1, 1, 1, 3, 2, 2, 2, 1, 1, 5, 5, 5, 5, 5, 5, 5, 4, 4, 3, 3, 2, 4, 3, 3, 3, 3, 3, 3, 3, 3, 3, 3, 3, 5, 3, 3, 2, 2, 1, 2, 2, 2, 2, 2, 2, 4, 3, 3, 3, 1, 1, 1, 1, 1, 1, 1, 1, 2, 2, 2, 2, 2, 2, 4, 4, 4, 4, 4, 4, 1, 1, 1, 1, 1, 1, 5, 4, 4, 4, 3, 3, 3, 3, 2, 2, 1, 1, 5, 5, 5, 5, 5, 5, 3, 3, 2, 2, 1, 1, 4, 3, 3, 3, 3, 3, 2, 2, 2, 2, 2, 2, 2, 2, 2, 2, 2, 2, 3, 3, 3, 2, 2, 2, 2, 2, 2, 2, 2, 2, 5, 4, 4, 4, 4, 4, 3, 3, 3, 3, 3, 3, 1, 1, 1, 1, 1, 1, 3, 3, 3, 3, 3, 3, 1, 1, 1, 1, 1, 1, 5, 4, 4, 3, 2, 2, 4, 4, 4, 4, 4, 4, 3, 3, 3, 2, 2, 2, 3, 3, 3, 3, 3, 3, 3, 3, 3, 2, 1, 1, 3, 2, 2, 1, 1, 1, 3, 2, 2, 2, 1, 1, 4, 4, 4, 4, 4, 4, 3, 3, 3, 3, 3, 3, 4, 4, 4, 4, 4, 4, 3, 3, 3, 3, 3, 3, 2, 2, 2, 2, 2, 2, 2, 2, 2, 2, 2, 2, 2, 2, 2, 1, 1, 1, 4, 3, 3, 3, 3, 3, 2, 2, 2, 2, 1, 1, 3, 3, 3, 3, 3, 3, 3, 3, 3, 3, 3, 3, 4, 3, 3, 2, 2, 1, 2, 2, 2, 1, 1, 1, 2, 1, 1, 1, 1, 1, 2, 1, 1, 1, 1, 1, 4, 4, 4, 4, 4, 4, 4, 3, 3, 2, 1, 1, 4, 4, 4, 3, 3, 3, 4, 4, 4, 3, 3, 3, 4, 4, 4, 4, 4, 4, 1, 1, 1, 1, 1, 1, 1, 1, 1, 1, 1, 1, 5, 4, 3, 2, 2, 1, 2, 1, 1, 1, 1, 1, 4, 3, 3, 3, 3, 3, 2, 1, 1, 1, 1, 1, 3, 3, 3, 3, 3, 3, 4, 3, 3, 3, 3, 3, 3, 3, 3, 2, 2, 2, 4, 4, 4, 3, 3, 3, 2, 2, 2, 2, 2, 2, 5, 4, 4, 4, 4, 4, 4, 4, 3, 3, 2, 1, 5, 4, 4, 3, 2, 2, 2, 2, 2, 1, 1, 1, 3, 3, 3, 3, 3, 3, 4, 4, 4, 4, 4, 4, 5, 4, 4, 3, 2, 2, 4, 4, 4, 4, 4, 4, 1, 1, 1, 1, 1, 1, 5, 5, 5, 5, 5, 5, 1, 1, 1, 1, 1, 1, 4, 3, 3, 3, 3, 3, 4, 4, 4, 4, 4, 4, 1, 1, 1, 1, 1, 1, 4, 3, 3, 3, 3, 3, 4, 4, 4, 4, 4, 4, 2, 2, 2, 2, 1, 1, 5, 4, 4, 3, 2, 2, 3, 2, 2, 1, 1, 1, 3, 3, 3, 3, 3, 3, 4, 4, 4, 4, 4, 4, 3, 3, 3, 3, 3, 3, 3, 3, 3, 3, 3, 3, 4, 3, 3, 3, 3, 3, 2, 1, 1, 1, 1, 1, 4, 4, 4, 4, 4, 4, 4, 3, 3, 2, 2, 1, 3, 2, 2, 2, 1, 1, 2, 1, 1, 1, 1, 1, 1, 1, 1, 1, 1, 1, 2, 1, 1, 1, 1, 1, 2, 1, 1, 1, 1, 1, 4, 4, 4, 4, 4, 4
 |18, 15, 12, 12, 8, 8, 11, 9, 8, 6, 6, 4, 7, 6, 5, 4, 4, 3, 16, 13, 13, 9, 7, 2, 9, 8, 7, 7, 7, 6, 17, 13, 11, 9, 7, 7, 15, 14, 13, 13, 13, 12, 10, 9, 9, 9, 9, 9, 5, 4, 4, 3, 3, 3, 18, 17, 15, 15, 13, 13, 11, 7, 7, 5, 3, 2, 18, 12, 11, 8, 6, 4, 13, 12, 10, 9, 8, 5, 19, 17, 14, 10, 6, 4, 11, 11, 9, 6, 3, 1, 19, 18, 14, 13, 11, 8, 4, 4, 4, 4, 4, 4, 17, 16, 16, 16, 15, 15, 17, 16, 13, 10, 9, 7, 13, 11, 10, 9, 7, 7, 16, 11, 10, 9, 7, 5, 17, 15, 13, 8, 6, 3, 11, 9, 9, 6, 4, 2, 17, 17, 15, 14, 14, 13, 17, 13, 11, 8, 6, 4, 14, 14, 13, 11, 11, 10, 5, 4, 4, 3, 2, 2, 9, 9, 8, 7, 6, 6, 11, 10, 9, 7, 4, 4, 5, 5, 5, 5, 5, 5, 14, 14, 14, 14, 14, 14, 17, 16, 15, 13, 10, 7, 7, 6, 6, 4, 4, 3, 20, 19, 18, 17, 15, 14, 18, 13, 13, 11, 7, 7, 14, 13, 12, 10, 9, 9, 15, 15, 13, 12, 11, 8, 17, 16, 16, 15, 15, 15, 17, 17, 17, 17, 16, 16, 16, 15, 11, 8, 6, 5, 17, 16, 13, 8, 7, 4, 11, 10, 9, 9, 8, 7, 7, 7, 6, 6, 5, 5, 6, 5, 4, 4, 3, 3, 6, 6, 6, 6, 5, 5, 16, 12, 11, 8, 7, 6, 11, 10, 8, 8, 6, 5, 19, 18, 15, 14, 12, 11, 13, 10, 10, 8, 8, 6, 14, 12, 11, 11, 10, 9, 8, 8, 8, 8, 8, 8, 15, 12, 11, 7, 6, 5, 8, 7, 7, 6, 5, 5, 20, 17, 16, 16, 13, 13, 16, 15, 14, 10, 8, 7, 19, 18, 18, 18, 18, 18, 18, 16, 11, 8, 6, 1, 7, 6, 5, 4, 3, 3, 8, 7, 7, 7, 7, 7, 7, 7, 6, 6, 4, 4, 13, 12, 12, 11, 10, 10, 15, 14, 14, 13, 12, 11, 11, 10, 10, 9, 9, 9, 13, 10, 10, 7, 7, 5, 11, 11, 11, 11, 11, 11, 15, 13, 11, 9, 6, 4, 17, 16, 15, 14, 14, 13, 7, 7, 7, 6, 6, 5, 15, 11, 11, 9, 7, 5, 18, 14, 13, 11, 9, 8, 3, 3, 3, 3, 3, 3, 17, 17, 17, 17, 17, 17, 11, 9, 8, 7, 3, 2, 11, 9, 8, 7, 6, 3, 7, 7, 6, 6, 4, 4, 12, 12, 11, 10, 8, 7, 8, 7, 5, 5, 3, 3, 15, 14, 13, 10, 9, 9, 5, 4, 4, 4, 4, 4, 13, 13, 13, 13, 12, 12, 16, 15, 15, 13, 11, 9, 12, 9, 8, 6, 3, 3, 6, 5, 4, 2, 1, 1, 13, 12, 10, 9, 8, 8, 18, 17, 17, 17, 17, 17, 17, 17, 17, 17, 17, 17, 12, 11, 11, 11, 11, 11, 20, 17, 14, 13, 9, 8, 12, 9, 7, 7, 3, 1, 8, 6, 6, 4, 3, 2, 5, 4, 4, 3, 3, 2, 10, 9, 8, 8, 8, 7, 19, 19, 17, 16, 15, 15, 16, 13, 11, 9, 7, 7, 17, 16, 16, 16, 15, 15, 18, 18, 16, 13, 12, 9, 13, 12, 10, 9, 9, 8, 16, 12, 11, 8, 8, 5, 9, 9, 8, 6, 4, 2, 14, 13, 11, 7, 6, 4
 |9, 8, 6, 5, 4, 3, 16, 12, 12, 8, 6, 4, 18, 16, 16, 15, 14, 14, 19, 15, 14, 13, 11, 8, 17, 17, 16, 15, 14, 14, 14, 14, 14, 14, 14, 14, 20, 18, 14, 13, 12, 9, 14, 12, 11, 9, 7, 7, 18, 17, 16, 14, 12, 12, 14, 14, 13, 13, 13, 12, 11, 10, 8, 7, 6, 5, 7, 7, 5, 5, 2, 2, 6, 6, 6, 6, 6, 6, 18, 18, 18, 18, 18, 18, 10, 8, 8, 5, 5, 2, 14, 10, 9, 8, 3, 3, 5, 5, 5, 4, 4, 3, 9, 7, 6, 5, 3, 3, 18, 16, 14, 13, 11, 10, 5, 5, 5, 5, 5, 5, 18, 17, 15, 14, 13, 13, 6, 6, 6, 6, 6, 6, 17, 15, 13, 11, 10, 8, 19, 14, 13, 8, 5, 3, 17, 17, 17, 17, 17, 17, 19, 16, 15, 15, 13, 12, 11, 9, 7, 6, 5, 2, 18, 16, 16, 16, 15, 14, 4, 4, 4, 4, 4, 4, 12, 12, 12, 11, 11, 10, 10, 10, 10, 10, 10, 10, 16, 15, 14, 14, 13, 12, 17, 17, 16, 15, 14, 13, 18, 17, 16, 16, 14, 14, 13, 11, 8, 6, 3, 3, 16, 16, 16, 16, 16, 16, 8, 7, 7, 5, 4, 4, 15, 13, 12, 9, 9, 8, 20, 18, 16, 13, 11, 11, 4, 3, 3, 2, 2, 2, 3, 3, 3, 3, 3, 3, 13, 12, 11, 11, 10, 9, 14, 13, 12, 12, 10, 10, 17, 15, 14, 13, 12, 12, 7, 5, 5, 4, 2, 2, 10, 10, 7, 6, 6, 3, 14, 13, 12, 12, 10, 9, 4, 3, 2, 2, 1, 1, 19, 19, 18, 16, 16, 15, 14, 14, 13, 11, 10, 10, 18, 15, 13, 9, 5, 5, 14, 14, 14, 14, 13, 13, 18, 15, 13, 9, 8, 5, 16, 16, 16, 16, 16, 16, 12, 9, 8, 5, 3, 2, 17, 16, 14, 13, 13, 12, 16, 14, 12, 11, 9, 7, 5, 5, 5, 5, 4, 4, 3, 3, 3, 3, 3, 3, 7, 7, 5, 4, 4, 3, 17, 13, 9, 8, 5, 3, 8, 8, 7, 6, 6, 5, 18, 17, 17, 16, 16, 16, 10, 8, 7, 7, 5, 5, 16, 15, 11, 8, 7, 2, 18, 17, 17, 17, 17, 17, 4, 3, 3, 3, 3, 3, 10, 9, 8, 6, 4, 4, 13, 11, 7, 7, 5, 2, 3, 3, 3, 3, 2, 2, 6, 6, 5, 5, 4, 4, 18, 17, 15, 14, 13, 12, 12, 11, 11, 11, 11, 11, 19, 18, 17, 17, 16, 16, 9, 8, 6, 5, 4, 2, 17, 14, 11, 11, 7, 7, 19, 19, 19, 19, 19, 19, 19, 16, 16, 14, 11, 11, 13, 11, 11, 9, 5, 5, 13, 13, 13, 13, 13, 13, 11, 9, 8, 8, 6, 5, 13, 12, 9, 8, 7, 5, 19, 19, 19, 19, 19, 19, 9, 7, 7, 6, 4, 4, 17, 16, 13, 10, 10, 7, 20, 15, 15, 12, 9, 6, 14, 14, 13, 12, 12, 11, 18, 16, 16, 13, 13, 11, 13, 10, 9, 6, 5, 2, 13, 10, 10, 9, 7, 4, 10, 8, 8, 7, 5, 5, 10, 9, 9, 9, 8, 7, 17, 17, 17, 17, 17, 17, 14, 13, 11, 8, 7, 5, 17, 16, 14, 14, 12, 12, 18, 14, 13, 12, 9, 9, 8, 7, 6, 4, 3, 3, 17, 12, 12, 8, 7, 6, 12, 10, 8, 8, 6, 5, 14, 13, 11, 11, 9, 9
 |17, 13, 11, 10, 8, 4, 14, 9, 7, 6, 4, 3, 14, 13, 11, 10, 10, 8, 13, 11, 11, 10, 9, 9, 11, 11, 11, 11, 11, 11, 11, 11, 11, 10, 10, 10, 5, 4, 3, 3, 3, 2, 15, 14, 14, 12, 12, 10, 11, 10, 9, 7, 5, 4, 19, 15, 12, 10, 8, 5, 10, 8, 8, 6, 3, 2, 10, 9, 9, 9, 7, 7, 15, 12, 9, 7, 4, 4, 5, 4, 4, 4, 3, 3, 7, 5, 5, 3, 2, 1, 16, 14, 13, 13, 10, 9, 17, 15, 13, 11, 11, 9, 17, 15, 14, 11, 10, 8, 9, 9, 9, 9, 9, 9, 20, 19, 19, 18, 18, 17, 14, 14, 14, 13, 12, 12, 7, 7, 7, 6, 6, 6, 18, 17, 17, 17, 16, 16, 13, 12, 12, 12, 12, 12, 15, 13, 13, 11, 11, 10, 11, 10, 9, 8, 7, 7, 16, 16, 15, 15, 14, 14, 16, 16, 14, 14, 12, 11, 12, 11, 11, 10, 10, 10, 11, 9, 9, 9, 8, 7, 19, 17, 17, 17, 16, 15, 18, 18, 16, 16, 15, 14, 19, 16, 12, 9, 8, 5, 8, 7, 7, 5, 3, 1, 17, 16, 16, 14, 13, 12, 9, 7, 7, 7, 5, 5, 11, 11, 9, 8, 8, 7, 16, 16, 16, 15, 14, 14, 16, 14, 13, 13, 11, 8, 6, 5, 5, 5, 4, 4, 6, 5, 5, 4, 4, 4, 12, 11, 9, 6, 6, 3, 12, 12, 12, 11, 11, 11, 15, 13, 13, 11, 10, 9, 13, 13, 11, 9, 9, 7, 16, 13, 13, 11, 7, 6, 15, 15, 15, 15, 14, 14, 19, 18, 18, 17, 17, 17, 15, 15, 13, 9, 9, 7, 16, 13, 12, 10, 7, 6, 20, 17, 15, 15, 12, 11, 18, 16, 15, 12, 11, 8, 16, 12, 12, 6, 4, 2, 20, 16, 14, 12, 11, 9, 16, 15, 12, 10, 10, 8, 16, 16, 16, 16, 16, 16, 10, 8, 8, 8, 6, 6, 17, 15, 14, 11, 10, 9, 4, 3, 3, 3, 2, 1, 12, 10, 9, 6, 4, 1, 15, 15, 12, 11, 10, 7, 17, 15, 14, 12, 9, 7, 10, 8, 6, 6, 4, 2, 11, 10, 10, 9, 6, 6, 14, 12, 12, 10, 7, 6, 12, 11, 8, 6, 5, 2, 17, 16, 16, 15, 15, 15, 13, 13, 13, 13, 13, 13, 18, 18, 16, 14, 12, 11, 14, 12, 12, 11, 10, 9, 13, 11, 11, 9, 6, 4, 13, 12, 10, 10, 8, 8, 19, 18, 16, 16, 14, 13, 17, 16, 15, 14, 13, 13, 16, 15, 15, 15, 14, 13, 4, 4, 4, 3, 2, 2, 4, 4, 4, 4, 4, 4, 15, 14, 12, 11, 11, 10, 16, 12, 11, 7, 6, 3, 7, 7, 7, 6, 6, 5, 16, 15, 15, 14, 11, 10, 18, 16, 16, 16, 14, 14, 8, 7, 7, 7, 7, 7, 15, 14, 14, 12, 11, 10, 7, 6, 5, 5, 4, 3, 6, 5, 4, 4, 4, 3, 9, 7, 7, 6, 5, 4, 5, 4, 4, 4, 3, 2, 19, 19, 19, 19, 19, 19, 17, 14, 12, 11, 7, 5, 19, 15, 15, 14, 10, 10, 16, 16, 14, 13, 12, 12, 15, 15, 15, 14, 14, 14, 12, 11, 10, 7, 7, 6, 7, 5, 5, 3, 2, 2, 19, 18, 17, 17, 15, 15, 15, 14, 13, 13, 11, 11, 13, 13, 13, 13, 13, 13, 13, 13, 12, 12, 12, 11, 8, 7, 6, 5, 4, 2
 |8, 8, 8, 8, 8, 8, 4, 4, 3, 2, 1, 1, 11, 10, 9, 8, 8, 7, 14, 10, 10, 7, 6, 3, 9, 7, 7, 5, 5, 3, 8, 7, 7, 6, 4, 4, 14, 13, 12, 12, 10, 10, 16, 16, 15, 14, 12, 11, 9, 7, 6, 5, 2, 1, 15, 13, 11, 8, 5, 3, 8, 7, 5, 5, 2, 2, 8, 8, 7, 7, 6, 6, 4, 4, 4, 4, 4, 4, 19, 19, 18, 18, 18, 17, 2, 2, 2, 2, 2, 2, 20, 14, 13, 11, 6, 4, 13, 12, 12, 11, 10, 10, 19, 15, 12, 11, 7, 6, 6, 4, 4, 4, 3, 2, 11, 10, 10, 9, 9, 9, 15, 13, 13, 12, 11, 11, 18, 16, 13, 10, 9, 8, 14, 10, 9, 6, 5, 1, 16, 13, 12, 11, 8, 7, 8, 7, 6, 5, 4, 3, 15, 15, 13, 10, 9, 8, 17, 17, 15, 14, 14, 13, 9, 8, 8, 8, 8, 8, 17, 16, 16, 15, 15, 14, 15, 13, 10, 7, 6, 4, 18, 15, 14, 12, 10, 8, 5, 5, 5, 5, 5, 5, 20, 18, 16, 14, 13, 12, 16, 15, 15, 15, 13, 13, 15, 14, 12, 12, 10, 10, 19, 18, 16, 16, 15, 14, 9, 8, 8, 6, 5, 5, 18, 14, 14, 11, 7, 6, 8, 7, 7, 7, 7, 7, 2, 2, 2, 1, 1, 1, 17, 16, 16, 15, 14, 14, 17, 17, 16, 16, 15, 14, 5, 4, 4, 3, 3, 2, 19, 15, 10, 9, 5, 3, 1, 1, 1, 1, 1, 1, 17, 16, 16, 16, 16, 16, 20, 17, 16, 15, 15, 14, 10, 9, 8, 7, 6, 4, 12, 11, 9, 8, 7, 7, 15, 12, 10, 9, 7, 7, 13, 11, 10, 5, 4, 2, 16, 15, 15, 15, 15, 15, 11, 11, 10, 10, 10, 9, 18, 16, 15, 12, 10, 9, 17, 13, 11, 10, 9, 7, 18, 15, 13, 9, 7, 3, 9, 9, 9, 9, 8, 8, 16, 15, 13, 12, 11, 11, 15, 14, 10, 8, 7, 5, 6, 5, 5, 4, 4, 3, 14, 14, 14, 14, 14, 14, 20, 19, 19, 19, 19, 19, 14, 13, 13, 13, 12, 12, 16, 15, 14, 9, 9, 7, 18, 14, 14, 10, 7, 4, 1, 1, 1, 1, 1, 1, 15, 14, 12, 11, 10, 9, 11, 9, 9, 8, 6, 4, 14, 13, 13, 13, 12, 12, 6, 5, 5, 5, 4, 3, 8, 6, 5, 5, 3, 2, 19, 15, 13, 9, 4, 2, 18, 18, 17, 17, 16, 15, 9, 9, 7, 6, 5, 4, 18, 18, 16, 15, 14, 14, 14, 13, 11, 8, 6, 6, 11, 9, 6, 5, 2, 1, 18, 17, 15, 13, 12, 11, 18, 16, 14, 14, 10, 9, 6, 4, 3, 2, 2, 1, 16, 16, 15, 15, 15, 14, 15, 15, 14, 12, 10, 8, 9, 8, 8, 8, 7, 6, 13, 13, 13, 13, 13, 13, 12, 10, 9, 7, 7, 5, 19, 17, 15, 14, 12, 10, 11, 8, 8, 6, 5, 5, 10, 9, 8, 6, 5, 5, 13, 12, 12, 12, 11, 11, 17, 14, 14, 10, 8, 5, 3, 3, 2, 3, 3, 3, 17, 13, 11, 8, 8, 4, 12, 11, 11, 10, 9, 8, 18, 18, 17, 17, 16, 16, 19, 19, 19, 19, 18, 17, 6, 6, 6, 5, 5, 5, 12, 12, 12, 12, 12, 12, 16, 14, 14, 13, 10, 10, 17, 13, 11, 10, 8, 4, 10, 10, 8, 7, 5, 4|];